NAME : X-n10-k3
CAPACITY  : 350
NODE_COORD_SECTION	
1   134   267
2   412   185
3   278   450
4   360   320
5   245   125
6   392   285
7   120   410
8   275   75
9   450   230
10  66    354
DEMAND_SECTION		
1   0
2   45
3   30
4   50
5   20
6   60
7   15
8   25
9   35
10  10		
DEPOT_SECTION		
	1	
	-1	
EOF